n_nodes = 726;
M = 6701;
n_domains = 18;
domain_link_weights = [|0,6701,6701,358,6701,6701,6701,6701,6701,6701,6701,6701,6701,6701,6701,6701,6701,6701|6701,0,6701,6701,6701,479,344,264,6701,6701,6701,6701,6701,6701,6701,6701,6701,6701|6701,6701,0,6701,6701,6701,6701,6701,6701,972,6701,6701,6701,6701,1788,6701,6701,6701|6701,6701,6701,0,6701,6701,6701,6701,6701,6701,6701,6701,6701,6701,6701,6701,6701,6701|6701,6701,6701,6701,0,364,358,173,6701,6701,6701,6701,6701,6701,6701,6701,6701,6223|6701,6701,6701,6701,6701,0,6701,6701,6701,6701,6701,6701,6701,6701,6701,6701,6701,6701|6701,6701,6701,6701,6701,6701,0,6701,5585,6701,6701,6701,6701,6701,6701,6701,6701,6701|6701,6701,6701,6701,6701,6701,6701,0,6701,6701,6701,6701,6701,6701,6701,6701,6701,6701|6701,6701,6701,6701,6701,6701,6701,6701,0,6701,6701,6701,6701,6701,6701,1148,556,350|6701,6701,6701,6701,6701,6701,6701,6701,6701,0,6701,6701,6701,2562,6701,943,6701,852|6701,6701,6701,6701,6701,6701,6701,6701,6701,6701,0,1141,6701,6701,6701,2795,6701,6701|6701,6701,6701,6701,6701,6701,6701,6701,6701,6701,6701,0,492,6701,6701,2963,6701,3855|6701,6701,6701,6701,6701,6701,6701,6701,6701,6701,6701,6701,0,575,1995,2807,6701,6701|6701,6701,6701,6701,6701,6701,6701,6701,6701,6701,6701,6701,6701,0,1425,6701,6701,6701|6701,6701,6701,6701,6701,6701,6701,6701,6701,6701,6701,6701,6701,6701,0,1291,6701,1872|6701,6701,6701,6701,6701,6701,6701,6701,6701,6701,6701,6701,6701,6701,6701,0,704,916|6701,6701,6701,6701,6701,6701,6701,6701,6701,6701,6701,6701,6701,6701,6701,6701,0,6701|6701,6701,6701,6701,6701,6701,6701,6701,6701,6701,6701,6701,6701,6701,6701,6701,6701,0|];
num_node_links = 1447;
node_links = [|1,3|1,4|2,6|2,7|2,8|3,10|3,15|5,6|5,7|5,8|5,18|7,9|9,16|9,17|9,18|10,14|10,16|10,18|11,12|11,16|12,13|12,16|12,18|13,14|13,15|13,16|14,15|15,16|15,18|16,17|16,18|1,19|19,1|1,51|51,1|1,65|65,1|1,66|66,1|1,116|116,1|1,118|118,1|1,120|120,1|1,140|140,1|1,168|168,1|1,174|174,1|1,209|209,1|1,227|227,1|1,234|234,1|1,241|241,1|1,243|243,1|1,292|292,1|1,300|300,1|1,301|301,1|1,305|305,1|1,307|307,1|1,345|345,1|1,356|356,1|1,478|478,1|1,509|509,1|1,517|517,1|1,523|523,1|1,531|531,1|1,532|532,1|1,581|581,1|1,583|583,1|1,584|584,1|1,585|585,1|1,587|587,1|1,595|595,1|1,603|603,1|1,637|637,1|1,660|660,1|1,664|664,1|1,679|679,1|1,704|704,1|2,20|20,2|2,98|98,2|2,127|127,2|2,129|129,2|2,131|131,2|2,193|193,2|2,197|197,2|2,202|202,2|2,225|225,2|2,293|293,2|2,299|299,2|2,318|318,2|2,332|332,2|2,335|335,2|2,339|339,2|2,354|354,2|2,375|375,2|2,380|380,2|2,424|424,2|2,425|425,2|2,427|427,2|2,449|449,2|2,488|488,2|2,512|512,2|2,535|535,2|2,550|550,2|2,555|555,2|2,559|559,2|2,566|566,2|2,597|597,2|2,608|608,2|2,644|644,2|2,670|670,2|2,680|680,2|2,693|693,2|2,696|696,2|2,700|700,2|2,701|701,2|2,705|705,2|2,726|726,2|3,21|21,3|3,42|42,3|3,44|44,3|3,57|57,3|3,68|68,3|3,89|89,3|3,133|133,3|3,136|136,3|3,173|173,3|3,186|186,3|3,195|195,3|3,204|204,3|3,208|208,3|3,213|213,3|3,215|215,3|3,231|231,3|3,240|240,3|3,263|263,3|3,267|267,3|3,276|276,3|3,277|277,3|3,295|295,3|3,330|330,3|3,343|343,3|3,361|361,3|3,371|371,3|3,415|415,3|3,448|448,3|3,503|503,3|3,519|519,3|3,520|520,3|3,546|546,3|3,558|558,3|3,573|573,3|3,642|642,3|3,647|647,3|3,656|656,3|3,658|658,3|3,667|667,3|3,709|709,3|4,22|22,4|4,46|46,4|4,107|107,4|4,124|124,4|4,130|130,4|4,139|139,4|4,145|145,4|4,154|154,4|4,155|155,4|4,163|163,4|4,181|181,4|4,182|182,4|4,201|201,4|4,250|250,4|4,259|259,4|4,308|308,4|4,319|319,4|4,324|324,4|4,351|351,4|4,355|355,4|4,360|360,4|4,365|365,4|4,407|407,4|4,414|414,4|4,420|420,4|4,446|446,4|4,475|475,4|4,482|482,4|4,516|516,4|4,526|526,4|4,560|560,4|4,580|580,4|4,627|627,4|4,635|635,4|4,640|640,4|4,643|643,4|4,650|650,4|4,654|654,4|4,659|659,4|4,698|698,4|5,23|23,5|5,39|39,5|5,47|47,5|5,55|55,5|5,75|75,5|5,76|76,5|5,91|91,5|5,96|96,5|5,104|104,5|5,113|113,5|5,122|122,5|5,143|143,5|5,150|150,5|5,160|160,5|5,171|171,5|5,184|184,5|5,239|239,5|5,270|270,5|5,316|316,5|5,326|326,5|5,331|331,5|5,333|333,5|5,337|337,5|5,391|391,5|5,397|397,5|5,423|423,5|5,450|450,5|5,502|502,5|5,521|521,5|5,534|534,5|5,548|548,5|5,588|588,5|5,591|591,5|5,596|596,5|5,606|606,5|5,611|611,5|5,631|631,5|5,674|674,5|5,690|690,5|5,713|713,5|6,24|24,6|6,40|40,6|6,78|78,6|6,90|90,6|6,101|101,6|6,105|105,6|6,111|111,6|6,128|128,6|6,162|162,6|6,169|169,6|6,200|200,6|6,221|221,6|6,226|226,6|6,248|248,6|6,253|253,6|6,271|271,6|6,304|304,6|6,311|311,6|6,313|313,6|6,402|402,6|6,429|429,6|6,483|483,6|6,484|484,6|6,495|495,6|6,500|500,6|6,522|522,6|6,541|541,6|6,561|561,6|6,563|563,6|6,568|568,6|6,579|579,6|6,619|619,6|6,629|629,6|6,632|632,6|6,662|662,6|6,665|665,6|6,673|673,6|6,699|699,6|6,711|711,6|6,719|719,6|7,25|25,7|7,49|49,7|7,72|72,7|7,77|77,7|7,159|159,7|7,164|164,7|7,238|238,7|7,245|245,7|7,256|256,7|7,266|266,7|7,272|272,7|7,280|280,7|7,291|291,7|7,306|306,7|7,321|321,7|7,362|362,7|7,421|421,7|7,431|431,7|7,432|432,7|7,433|433,7|7,434|434,7|7,438|438,7|7,466|466,7|7,471|471,7|7,476|476,7|7,499|499,7|7,508|508,7|7,527|527,7|7,551|551,7|7,554|554,7|7,572|572,7|7,604|604,7|7,607|607,7|7,622|622,7|7,625|625,7|7,648|648,7|7,666|666,7|7,675|675,7|7,677|677,7|7,686|686,7|8,26|26,8|8,54|54,8|8,70|70,8|8,73|73,8|8,84|84,8|8,92|92,8|8,97|97,8|8,112|112,8|8,138|138,8|8,175|175,8|8,183|183,8|8,203|203,8|8,261|261,8|8,290|290,8|8,297|297,8|8,303|303,8|8,327|327,8|8,379|379,8|8,383|383,8|8,392|392,8|8,394|394,8|8,395|395,8|8,419|419,8|8,444|444,8|8,445|445,8|8,457|457,8|8,468|468,8|8,498|498,8|8,518|518,8|8,533|533,8|8,564|564,8|8,570|570,8|8,577|577,8|8,610|610,8|8,621|621,8|8,649|649,8|8,653|653,8|8,669|669,8|8,694|694,8|8,712|712,8|9,27|27,9|9,38|38,9|9,74|74,9|9,93|93,9|9,134|134,9|9,144|144,9|9,192|192,9|9,194|194,9|9,224|224,9|9,275|275,9|9,281|281,9|9,285|285,9|9,296|296,9|9,302|302,9|9,334|334,9|9,349|349,9|9,357|357,9|9,358|358,9|9,385|385,9|9,389|389,9|9,396|396,9|9,404|404,9|9,412|412,9|9,447|447,9|9,456|456,9|9,461|461,9|9,472|472,9|9,473|473,9|9,479|479,9|9,501|501,9|9,612|612,9|9,617|617,9|9,620|620,9|9,663|663,9|9,689|689,9|9,695|695,9|9,715|715,9|9,716|716,9|9,723|723,9|9,725|725,9|10,28|28,10|10,59|59,10|10,79|79,10|10,158|158,10|10,187|187,10|10,210|210,10|10,219|219,10|10,246|246,10|10,257|257,10|10,260|260,10|10,283|283,10|10,320|320,10|10,323|323,10|10,342|342,10|10,377|377,10|10,400|400,10|10,409|409,10|10,413|413,10|10,416|416,10|10,418|418,10|10,426|426,10|10,437|437,10|10,440|440,10|10,442|442,10|10,506|506,10|10,511|511,10|10,528|528,10|10,542|542,10|10,562|562,10|10,567|567,10|10,571|571,10|10,575|575,10|10,609|609,10|10,615|615,10|10,639|639,10|10,661|661,10|10,671|671,10|10,683|683,10|10,708|708,10|10,724|724,10|11,29|29,11|11,48|48,11|11,61|61,11|11,69|69,11|11,81|81,11|11,85|85,11|11,99|99,11|11,117|117,11|11,126|126,11|11,170|170,11|11,177|177,11|11,188|188,11|11,189|189,11|11,223|223,11|11,232|232,11|11,235|235,11|11,247|247,11|11,251|251,11|11,254|254,11|11,279|279,11|11,341|341,11|11,401|401,11|11,406|406,11|11,410|410,11|11,436|436,11|11,458|458,11|11,465|465,11|11,470|470,11|11,505|505,11|11,538|538,11|11,539|539,11|11,598|598,11|11,601|601,11|11,614|614,11|11,646|646,11|11,672|672,11|11,678|678,11|11,710|710,11|11,714|714,11|11,722|722,11|12,30|30,12|12,37|37,12|12,53|53,12|12,56|56,12|12,58|58,12|12,82|82,12|12,87|87,12|12,109|109,12|12,115|115,12|12,125|125,12|12,142|142,12|12,146|146,12|12,167|167,12|12,205|205,12|12,206|206,12|12,211|211,12|12,214|214,12|12,217|217,12|12,252|252,12|12,282|282,12|12,315|315,12|12,336|336,12|12,350|350,12|12,353|353,12|12,363|363,12|12,387|387,12|12,428|428,12|12,569|569,12|12,574|574,12|12,602|602,12|12,605|605,12|12,618|618,12|12,623|623,12|12,638|638,12|12,641|641,12|12,657|657,12|12,668|668,12|12,703|703,12|13,31|31,13|13,45|45,13|13,50|50,13|13,52|52,13|13,67|67,13|13,151|151,13|13,185|185,13|13,218|218,13|13,220|220,13|13,230|230,13|13,242|242,13|13,274|274,13|13,287|287,13|13,288|288,13|13,289|289,13|13,338|338,13|13,346|346,13|13,348|348,13|13,381|381,13|13,390|390,13|13,460|460,13|13,462|462,13|13,497|497,13|13,504|504,13|13,515|515,13|13,529|529,13|13,552|552,13|13,599|599,13|13,600|600,13|13,613|613,13|13,628|628,13|13,634|634,13|13,636|636,13|13,682|682,13|13,707|707,13|13,718|718,13|14,32|32,14|14,83|83,14|14,100|100,14|14,149|149,14|14,165|165,14|14,180|180,14|14,191|191,14|14,216|216,14|14,229|229,14|14,236|236,14|14,244|244,14|14,269|269,14|14,286|286,14|14,309|309,14|14,328|328,14|14,329|329,14|14,344|344,14|14,347|347,14|14,352|352,14|14,370|370,14|14,378|378,14|14,393|393,14|14,417|417,14|14,439|439,14|14,453|453,14|14,454|454,14|14,492|492,14|14,493|493,14|14,510|510,14|14,514|514,14|14,545|545,14|14,557|557,14|14,565|565,14|14,586|586,14|14,593|593,14|14,652|652,14|14,655|655,14|14,676|676,14|14,684|684,14|14,688|688,14|15,33|33,15|15,80|80,15|15,88|88,15|15,108|108,15|15,121|121,15|15,137|137,15|15,147|147,15|15,148|148,15|15,166|166,15|15,178|178,15|15,196|196,15|15,222|222,15|15,233|233,15|15,249|249,15|15,262|262,15|15,268|268,15|15,364|364,15|15,372|372,15|15,386|386,15|15,399|399,15|15,403|403,15|15,443|443,15|15,459|459,15|15,474|474,15|15,489|489,15|15,491|491,15|15,494|494,15|15,525|525,15|15,540|540,15|15,549|549,15|15,553|553,15|15,578|578,15|15,592|592,15|15,616|616,15|15,633|633,15|15,651|651,15|15,691|691,15|15,706|706,15|15,720|720,15|15,721|721,15|16,34|34,16|16,71|71,16|16,94|94,16|16,103|103,16|16,110|110,16|16,123|123,16|16,132|132,16|16,135|135,16|16,141|141,16|16,157|157,16|16,198|198,16|16,207|207,16|16,228|228,16|16,258|258,16|16,265|265,16|16,312|312,16|16,314|314,16|16,325|325,16|16,359|359,16|16,368|368,16|16,373|373,16|16,384|384,16|16,388|388,16|16,405|405,16|16,408|408,16|16,422|422,16|16,452|452,16|16,463|463,16|16,481|481,16|16,486|486,16|16,487|487,16|16,490|490,16|16,507|507,16|16,513|513,16|16,536|536,16|16,576|576,16|16,685|685,16|16,687|687,16|17,35|35,17|17,43|43,17|17,60|60,17|17,62|62,17|17,156|156,17|17,190|190,17|17,199|199,17|17,264|264,17|17,273|273,17|17,278|278,17|17,284|284,17|17,294|294,17|17,317|317,17|17,340|340,17|17,374|374,17|17,398|398,17|17,411|411,17|17,441|441,17|17,451|451,17|17,467|467,17|17,469|469,17|17,480|480,17|17,485|485,17|17,496|496,17|17,524|524,17|17,530|530,17|17,537|537,17|17,544|544,17|17,556|556,17|17,589|589,17|17,594|594,17|17,626|626,17|17,630|630,17|17,645|645,17|17,681|681,17|17,692|692,17|17,697|697,17|17,702|702,17|17,717|717,17|18,36|36,18|18,41|41,18|18,63|63,18|18,64|64,18|18,86|86,18|18,95|95,18|18,102|102,18|18,106|106,18|18,114|114,18|18,119|119,18|18,152|152,18|18,153|153,18|18,161|161,18|18,172|172,18|18,176|176,18|18,179|179,18|18,212|212,18|18,237|237,18|18,255|255,18|18,298|298,18|18,310|310,18|18,322|322,18|18,366|366,18|18,367|367,18|18,369|369,18|18,376|376,18|18,382|382,18|18,430|430,18|18,435|435,18|18,455|455,18|18,464|464,18|18,477|477,18|18,543|543,18|18,547|547,18|18,582|582,18|18,590|590,18|18,624|624,18|];
nodes = [|1,9,0,0,0,0,1,1|2,9,0,0,0,0,1,2|3,9,0,0,0,0,1,3|4,9,0,0,0,0,1,4|5,9,0,0,0,0,1,5|6,9,0,0,0,0,1,6|7,9,0,0,0,0,1,7|8,9,0,0,0,0,1,8|9,9,0,0,0,0,1,9|10,9,0,0,0,0,1,10|11,9,0,0,0,0,1,11|12,9,0,0,0,0,1,12|13,9,0,0,0,0,1,13|14,9,0,0,0,0,1,14|15,9,0,0,0,0,1,15|16,9,0,0,0,0,1,16|17,9,0,0,0,0,1,17|18,9,0,0,0,0,1,18|19,10,0,0,0,0,1,1|20,10,0,0,0,0,1,2|21,10,0,0,0,0,1,3|22,10,0,0,0,0,1,4|23,10,0,0,0,0,1,5|24,10,0,0,0,0,1,6|25,10,0,0,0,0,1,7|26,10,0,0,0,0,1,8|27,10,0,0,0,0,1,9|28,10,0,0,0,0,1,10|29,10,0,0,0,0,1,11|30,10,0,0,0,0,1,12|31,10,0,0,0,0,1,13|32,10,0,0,0,0,1,14|33,10,0,0,0,0,1,15|34,10,0,0,0,0,1,16|35,10,0,0,0,0,1,17|36,10,0,0,0,0,1,18|37,3,0,0,0,0,1,12|38,5,0,0,0,0,1,9|39,5,0,0,0,0,1,5|40,3,0,0,0,0,1,6|41,3,0,0,0,0,1,18|42,2,0,0,0,0,1,3|43,3,0,0,0,0,1,17|44,4,0,0,0,0,1,3|45,2,0,0,0,0,1,13|46,5,0,0,0,0,1,4|47,5,0,0,0,0,1,5|48,2,0,0,0,0,1,11|49,2,0,0,0,0,1,7|50,5,0,0,0,0,1,13|51,2,0,0,0,0,1,1|52,1,0,0,0,0,1,13|53,3,0,0,0,0,1,12|54,3,0,0,0,0,1,8|55,4,0,0,0,0,1,5|56,4,0,0,0,0,1,12|57,4,0,0,0,0,1,3|58,1,0,0,0,0,1,12|59,1,0,0,0,0,1,10|60,4,0,0,0,0,1,17|61,3,0,0,0,0,1,11|62,4,0,0,0,0,1,17|63,3,0,0,0,0,1,18|64,2,0,0,0,0,1,18|65,4,0,0,0,0,1,1|66,5,0,0,0,0,1,1|67,1,0,0,0,0,1,13|68,5,0,0,0,0,1,3|69,1,0,0,0,0,1,11|70,4,0,0,0,0,1,8|71,1,0,0,0,0,1,16|72,3,0,0,0,0,1,7|73,2,0,0,0,0,1,8|74,3,0,0,0,0,1,9|75,3,0,0,0,0,1,5|76,5,0,0,0,0,1,5|77,2,0,0,0,0,1,7|78,2,0,0,0,0,1,6|79,1,0,0,0,0,1,10|80,1,0,0,0,0,1,15|81,2,0,0,0,0,1,11|82,1,0,0,0,0,1,12|83,3,0,0,0,0,1,14|84,4,0,0,0,0,1,8|85,1,0,0,0,0,1,11|86,4,0,0,0,0,1,18|87,5,0,0,0,0,1,12|88,5,0,0,0,0,1,15|89,3,0,0,0,0,1,3|90,3,0,0,0,0,1,6|91,2,0,0,0,0,1,5|92,4,0,0,0,0,1,8|93,2,0,0,0,0,1,9|94,1,0,0,0,0,1,16|95,5,0,0,0,0,1,18|96,1,0,0,0,0,1,5|97,1,0,0,0,0,1,8|98,3,0,0,0,0,1,2|99,3,0,0,0,0,1,11|100,1,0,0,0,0,1,14|101,4,0,0,0,0,1,6|102,5,0,0,0,0,1,18|103,3,0,0,0,0,1,16|104,2,0,0,0,0,1,5|105,5,0,0,0,0,1,6|106,4,0,0,0,0,1,18|107,3,0,0,0,0,1,4|108,5,0,0,0,0,1,15|109,4,0,0,0,0,1,12|110,1,0,0,0,0,1,16|111,5,0,0,0,0,1,6|112,3,0,0,0,0,1,8|113,3,0,0,0,0,1,5|114,5,0,0,0,0,1,18|115,4,0,0,0,0,1,12|116,3,0,0,0,0,1,1|117,5,0,0,0,0,1,11|118,4,0,0,0,0,1,1|119,5,0,0,0,0,1,18|120,1,0,0,0,0,1,1|121,3,0,0,0,0,1,15|122,1,0,0,0,0,1,5|123,2,0,0,0,0,1,16|124,4,0,0,0,0,1,4|125,5,0,0,0,0,1,12|126,4,0,0,0,0,1,11|127,5,0,0,0,0,1,2|128,5,0,0,0,0,1,6|129,5,0,0,0,0,1,2|130,2,0,0,0,0,1,4|131,4,0,0,0,0,1,2|132,3,0,0,0,0,1,16|133,2,0,0,0,0,1,3|134,5,0,0,0,0,1,9|135,4,0,0,0,0,1,16|136,3,0,0,0,0,1,3|137,4,0,0,0,0,1,15|138,3,0,0,0,0,1,8|139,5,0,0,0,0,1,4|140,2,0,0,0,0,1,1|141,5,0,0,0,0,1,16|142,5,0,0,0,0,1,12|143,5,0,0,0,0,1,5|144,3,0,0,0,0,1,9|145,3,0,0,0,0,1,4|146,1,0,0,0,0,1,12|147,5,0,0,0,0,1,15|148,5,0,0,0,0,1,15|149,2,0,0,0,0,1,14|150,1,0,0,0,0,1,5|151,1,0,0,0,0,1,13|152,2,0,0,0,0,1,18|153,4,0,0,0,0,1,18|154,1,0,0,0,0,1,4|155,1,0,0,0,0,1,4|156,2,0,0,0,0,1,17|157,5,0,0,0,0,1,16|158,4,0,0,0,0,1,10|159,4,0,0,0,0,1,7|160,1,0,0,0,0,1,5|161,5,0,0,0,0,1,18|162,2,0,0,0,0,1,6|163,3,0,0,0,0,1,4|164,2,0,0,0,0,1,7|165,1,0,0,0,0,1,14|166,5,0,0,0,0,1,15|167,5,0,0,0,0,1,12|168,2,0,0,0,0,1,1|169,5,0,0,0,0,1,6|170,4,0,0,0,0,1,11|171,1,0,0,0,0,1,5|172,4,0,0,0,0,1,18|173,4,0,0,0,0,1,3|174,4,0,0,0,0,1,1|175,3,0,0,0,0,1,8|176,5,0,0,0,0,1,18|177,1,0,0,0,0,1,11|178,4,0,0,0,0,1,15|179,5,0,0,0,0,1,18|180,5,0,0,0,0,1,14|181,4,0,0,0,0,1,4|182,3,0,0,0,0,1,4|183,3,0,0,0,0,1,8|184,3,0,0,0,0,1,5|185,1,0,0,0,0,1,13|186,1,0,0,0,0,1,3|187,5,0,0,0,0,1,10|188,1,0,0,0,0,1,11|189,2,0,0,0,0,1,11|190,2,0,0,0,0,1,17|191,5,0,0,0,0,1,14|192,4,0,0,0,0,1,9|193,2,0,0,0,0,1,2|194,2,0,0,0,0,1,9|195,1,0,0,0,0,1,3|196,2,0,0,0,0,1,15|197,4,0,0,0,0,1,2|198,3,0,0,0,0,1,16|199,3,0,0,0,0,1,17|200,5,0,0,0,0,1,6|201,2,0,0,0,0,1,4|202,3,0,0,0,0,1,2|203,4,0,0,0,0,1,8|204,3,0,0,0,0,1,3|205,1,0,0,0,0,1,12|206,4,0,0,0,0,1,12|207,1,0,0,0,0,1,16|208,2,0,0,0,0,1,3|209,3,0,0,0,0,1,1|210,1,0,0,0,0,1,10|211,2,0,0,0,0,1,12|212,4,0,0,0,0,1,18|213,5,0,0,0,0,1,3|214,2,0,0,0,0,1,12|215,4,0,0,0,0,1,3|216,5,0,0,0,0,1,14|217,5,0,0,0,0,1,12|218,3,0,0,0,0,1,13|219,2,0,0,0,0,1,10|220,2,0,0,0,0,1,13|221,3,0,0,0,0,1,6|222,3,0,0,0,0,1,15|223,5,0,0,0,0,1,11|224,5,0,0,0,0,1,9|225,1,0,0,0,0,1,2|226,3,0,0,0,0,1,6|227,5,0,0,0,0,1,1|228,2,0,0,0,0,1,16|229,5,0,0,0,0,1,14|230,1,0,0,0,0,1,13|231,2,0,0,0,0,1,3|232,4,0,0,0,0,1,11|233,1,0,0,0,0,1,15|234,5,0,0,0,0,1,1|235,1,0,0,0,0,1,11|236,4,0,0,0,0,1,14|237,2,0,0,0,0,1,18|238,2,0,0,0,0,1,7|239,4,0,0,0,0,1,5|240,2,0,0,0,0,1,3|241,4,0,0,0,0,1,1|242,1,0,0,0,0,1,13|243,4,0,0,0,0,1,1|244,5,0,0,0,0,1,14|245,2,0,0,0,0,1,7|246,5,0,0,0,0,1,10|247,2,0,0,0,0,1,11|248,3,0,0,0,0,1,6|249,2,0,0,0,0,1,15|250,2,0,0,0,0,1,4|251,2,0,0,0,0,1,11|252,1,0,0,0,0,1,12|253,2,0,0,0,0,1,6|254,4,0,0,0,0,1,11|255,1,0,0,0,0,1,18|256,3,0,0,0,0,1,7|257,2,0,0,0,0,1,10|258,5,0,0,0,0,1,16|259,1,0,0,0,0,1,4|260,4,0,0,0,0,1,10|261,2,0,0,0,0,1,8|262,5,0,0,0,0,1,15|263,4,0,0,0,0,1,3|264,3,0,0,0,0,1,17|265,2,0,0,0,0,1,16|266,5,0,0,0,0,1,7|267,4,0,0,0,0,1,3|268,1,0,0,0,0,1,15|269,2,0,0,0,0,1,14|270,2,0,0,0,0,1,5|271,4,0,0,0,0,1,6|272,5,0,0,0,0,1,7|273,3,0,0,0,0,1,17|274,2,0,0,0,0,1,13|275,2,0,0,0,0,1,9|276,3,0,0,0,0,1,3|277,1,0,0,0,0,1,3|278,2,0,0,0,0,1,17|279,1,0,0,0,0,1,11|280,4,0,0,0,0,1,7|281,5,0,0,0,0,1,9|282,1,0,0,0,0,1,12|283,4,0,0,0,0,1,10|284,3,0,0,0,0,1,17|285,5,0,0,0,0,1,9|286,1,0,0,0,0,1,14|287,2,0,0,0,0,1,13|288,5,0,0,0,0,1,13|289,3,0,0,0,0,1,13|290,1,0,0,0,0,1,8|291,5,0,0,0,0,1,7|292,4,0,0,0,0,1,1|293,3,0,0,0,0,1,2|294,3,0,0,0,0,1,17|295,2,0,0,0,0,1,3|296,3,0,0,0,0,1,9|297,2,0,0,0,0,1,8|298,3,0,0,0,0,1,18|299,4,0,0,0,0,1,2|300,3,0,0,0,0,1,1|301,5,0,0,0,0,1,1|302,3,0,0,0,0,1,9|303,1,0,0,0,0,1,8|304,1,0,0,0,0,1,6|305,4,0,0,0,0,1,1|306,3,0,0,0,0,1,7|307,1,0,0,0,0,1,1|308,2,0,0,0,0,1,4|309,1,0,0,0,0,1,14|310,2,0,0,0,0,1,18|311,4,0,0,0,0,1,6|312,4,0,0,0,0,1,16|313,4,0,0,0,0,1,6|314,3,0,0,0,0,1,16|315,2,0,0,0,0,1,12|316,5,0,0,0,0,1,5|317,1,0,0,0,0,1,17|318,5,0,0,0,0,1,2|319,1,0,0,0,0,1,4|320,4,0,0,0,0,1,10|321,5,0,0,0,0,1,7|322,3,0,0,0,0,1,18|323,4,0,0,0,0,1,10|324,4,0,0,0,0,1,4|325,1,0,0,0,0,1,16|326,5,0,0,0,0,1,5|327,5,0,0,0,0,1,8|328,5,0,0,0,0,1,14|329,5,0,0,0,0,1,14|330,2,0,0,0,0,1,3|331,3,0,0,0,0,1,5|332,1,0,0,0,0,1,2|333,5,0,0,0,0,1,5|334,1,0,0,0,0,1,9|335,2,0,0,0,0,1,2|336,2,0,0,0,0,1,12|337,4,0,0,0,0,1,5|338,1,0,0,0,0,1,13|339,1,0,0,0,0,1,2|340,3,0,0,0,0,1,17|341,4,0,0,0,0,1,11|342,2,0,0,0,0,1,10|343,4,0,0,0,0,1,3|344,2,0,0,0,0,1,14|345,4,0,0,0,0,1,1|346,1,0,0,0,0,1,13|347,4,0,0,0,0,1,14|348,1,0,0,0,0,1,13|349,4,0,0,0,0,1,9|350,5,0,0,0,0,1,12|351,1,0,0,0,0,1,4|352,5,0,0,0,0,1,14|353,3,0,0,0,0,1,12|354,5,0,0,0,0,1,2|355,4,0,0,0,0,1,4|356,4,0,0,0,0,1,1|357,4,0,0,0,0,1,9|358,1,0,0,0,0,1,9|359,5,0,0,0,0,1,16|360,3,0,0,0,0,1,4|361,1,0,0,0,0,1,3|362,5,0,0,0,0,1,7|363,4,0,0,0,0,1,12|364,4,0,0,0,0,1,15|365,1,0,0,0,0,1,4|366,3,0,0,0,0,1,18|367,5,0,0,0,0,1,18|368,5,0,0,0,0,1,16|369,1,0,0,0,0,1,18|370,4,0,0,0,0,1,14|371,5,0,0,0,0,1,3|372,2,0,0,0,0,1,15|373,1,0,0,0,0,1,16|374,4,0,0,0,0,1,17|375,3,0,0,0,0,1,2|376,1,0,0,0,0,1,18|377,2,0,0,0,0,1,10|378,4,0,0,0,0,1,14|379,3,0,0,0,0,1,8|380,2,0,0,0,0,1,2|381,1,0,0,0,0,1,13|382,5,0,0,0,0,1,18|383,3,0,0,0,0,1,8|384,1,0,0,0,0,1,16|385,2,0,0,0,0,1,9|386,5,0,0,0,0,1,15|387,2,0,0,0,0,1,12|388,5,0,0,0,0,1,16|389,3,0,0,0,0,1,9|390,3,0,0,0,0,1,13|391,4,0,0,0,0,1,5|392,5,0,0,0,0,1,8|393,5,0,0,0,0,1,14|394,4,0,0,0,0,1,8|395,1,0,0,0,0,1,8|396,4,0,0,0,0,1,9|397,3,0,0,0,0,1,5|398,5,0,0,0,0,1,17|399,3,0,0,0,0,1,15|400,1,0,0,0,0,1,10|401,5,0,0,0,0,1,11|402,1,0,0,0,0,1,6|403,2,0,0,0,0,1,15|404,4,0,0,0,0,1,9|405,4,0,0,0,0,1,16|406,5,0,0,0,0,1,11|407,4,0,0,0,0,1,4|408,1,0,0,0,0,1,16|409,1,0,0,0,0,1,10|410,3,0,0,0,0,1,11|411,4,0,0,0,0,1,17|412,4,0,0,0,0,1,9|413,5,0,0,0,0,1,10|414,3,0,0,0,0,1,4|415,2,0,0,0,0,1,3|416,5,0,0,0,0,1,10|417,4,0,0,0,0,1,14|418,2,0,0,0,0,1,10|419,4,0,0,0,0,1,8|420,2,0,0,0,0,1,4|421,5,0,0,0,0,1,7|422,3,0,0,0,0,1,16|423,5,0,0,0,0,1,5|424,3,0,0,0,0,1,2|425,2,0,0,0,0,1,2|426,5,0,0,0,0,1,10|427,1,0,0,0,0,1,2|428,5,0,0,0,0,1,12|429,4,0,0,0,0,1,6|430,3,0,0,0,0,1,18|431,3,0,0,0,0,1,7|432,3,0,0,0,0,1,7|433,5,0,0,0,0,1,7|434,3,0,0,0,0,1,7|435,5,0,0,0,0,1,18|436,3,0,0,0,0,1,11|437,3,0,0,0,0,1,10|438,4,0,0,0,0,1,7|439,1,0,0,0,0,1,14|440,1,0,0,0,0,1,10|441,1,0,0,0,0,1,17|442,4,0,0,0,0,1,10|443,1,0,0,0,0,1,15|444,4,0,0,0,0,1,8|445,5,0,0,0,0,1,8|446,3,0,0,0,0,1,4|447,2,0,0,0,0,1,9|448,2,0,0,0,0,1,3|449,3,0,0,0,0,1,2|450,1,0,0,0,0,1,5|451,4,0,0,0,0,1,17|452,2,0,0,0,0,1,16|453,3,0,0,0,0,1,14|454,4,0,0,0,0,1,14|455,3,0,0,0,0,1,18|456,3,0,0,0,0,1,9|457,3,0,0,0,0,1,8|458,3,0,0,0,0,1,11|459,2,0,0,0,0,1,15|460,3,0,0,0,0,1,13|461,2,0,0,0,0,1,9|462,4,0,0,0,0,1,13|463,2,0,0,0,0,1,16|464,1,0,0,0,0,1,18|465,3,0,0,0,0,1,11|466,1,0,0,0,0,1,7|467,3,0,0,0,0,1,17|468,3,0,0,0,0,1,8|469,3,0,0,0,0,1,17|470,4,0,0,0,0,1,11|471,5,0,0,0,0,1,7|472,3,0,0,0,0,1,9|473,5,0,0,0,0,1,9|474,5,0,0,0,0,1,15|475,1,0,0,0,0,1,4|476,5,0,0,0,0,1,7|477,2,0,0,0,0,1,18|478,1,0,0,0,0,1,1|479,4,0,0,0,0,1,9|480,2,0,0,0,0,1,17|481,2,0,0,0,0,1,16|482,1,0,0,0,0,1,4|483,2,0,0,0,0,1,6|484,2,0,0,0,0,1,6|485,2,0,0,0,0,1,17|486,1,0,0,0,0,1,16|487,3,0,0,0,0,1,16|488,3,0,0,0,0,1,2|489,2,0,0,0,0,1,15|490,2,0,0,0,0,1,16|491,2,0,0,0,0,1,15|492,4,0,0,0,0,1,14|493,5,0,0,0,0,1,14|494,1,0,0,0,0,1,15|495,5,0,0,0,0,1,6|496,4,0,0,0,0,1,17|497,2,0,0,0,0,1,13|498,2,0,0,0,0,1,8|499,1,0,0,0,0,1,7|500,4,0,0,0,0,1,6|501,1,0,0,0,0,1,9|502,5,0,0,0,0,1,5|503,5,0,0,0,0,1,3|504,5,0,0,0,0,1,13|505,2,0,0,0,0,1,11|506,4,0,0,0,0,1,10|507,3,0,0,0,0,1,16|508,5,0,0,0,0,1,7|509,2,0,0,0,0,1,1|510,2,0,0,0,0,1,14|511,3,0,0,0,0,1,10|512,3,0,0,0,0,1,2|513,2,0,0,0,0,1,16|514,1,0,0,0,0,1,14|515,5,0,0,0,0,1,13|516,2,0,0,0,0,1,4|517,5,0,0,0,0,1,1|518,5,0,0,0,0,1,8|519,4,0,0,0,0,1,3|520,2,0,0,0,0,1,3|521,2,0,0,0,0,1,5|522,1,0,0,0,0,1,6|523,3,0,0,0,0,1,1|524,2,0,0,0,0,1,17|525,1,0,0,0,0,1,15|526,3,0,0,0,0,1,4|527,1,0,0,0,0,1,7|528,3,0,0,0,0,1,10|529,5,0,0,0,0,1,13|530,1,0,0,0,0,1,17|531,3,0,0,0,0,1,1|532,4,0,0,0,0,1,1|533,4,0,0,0,0,1,8|534,3,0,0,0,0,1,5|535,1,0,0,0,0,1,2|536,1,0,0,0,0,1,16|537,4,0,0,0,0,1,17|538,2,0,0,0,0,1,11|539,2,0,0,0,0,1,11|540,1,0,0,0,0,1,15|541,1,0,0,0,0,1,6|542,5,0,0,0,0,1,10|543,4,0,0,0,0,1,18|544,4,0,0,0,0,1,17|545,3,0,0,0,0,1,14|546,5,0,0,0,0,1,3|547,5,0,0,0,0,1,18|548,4,0,0,0,0,1,5|549,1,0,0,0,0,1,15|550,3,0,0,0,0,1,2|551,4,0,0,0,0,1,7|552,5,0,0,0,0,1,13|553,1,0,0,0,0,1,15|554,3,0,0,0,0,1,7|555,2,0,0,0,0,1,2|556,2,0,0,0,0,1,17|557,3,0,0,0,0,1,14|558,4,0,0,0,0,1,3|559,5,0,0,0,0,1,2|560,3,0,0,0,0,1,4|561,3,0,0,0,0,1,6|562,4,0,0,0,0,1,10|563,1,0,0,0,0,1,6|564,4,0,0,0,0,1,8|565,2,0,0,0,0,1,14|566,2,0,0,0,0,1,2|567,1,0,0,0,0,1,10|568,2,0,0,0,0,1,6|569,2,0,0,0,0,1,12|570,5,0,0,0,0,1,8|571,4,0,0,0,0,1,10|572,4,0,0,0,0,1,7|573,2,0,0,0,0,1,3|574,3,0,0,0,0,1,12|575,2,0,0,0,0,1,10|576,3,0,0,0,0,1,16|577,3,0,0,0,0,1,8|578,5,0,0,0,0,1,15|579,1,0,0,0,0,1,6|580,5,0,0,0,0,1,4|581,1,0,0,0,0,1,1|582,2,0,0,0,0,1,18|583,5,0,0,0,0,1,1|584,2,0,0,0,0,1,1|585,1,0,0,0,0,1,1|586,3,0,0,0,0,1,14|587,4,0,0,0,0,1,1|588,5,0,0,0,0,1,5|589,5,0,0,0,0,1,17|590,1,0,0,0,0,1,18|591,3,0,0,0,0,1,5|592,1,0,0,0,0,1,15|593,1,0,0,0,0,1,14|594,2,0,0,0,0,1,17|595,5,0,0,0,0,1,1|596,4,0,0,0,0,1,5|597,1,0,0,0,0,1,2|598,4,0,0,0,0,1,11|599,5,0,0,0,0,1,13|600,2,0,0,0,0,1,13|601,1,0,0,0,0,1,11|602,3,0,0,0,0,1,12|603,4,0,0,0,0,1,1|604,4,0,0,0,0,1,7|605,2,0,0,0,0,1,12|606,4,0,0,0,0,1,5|607,4,0,0,0,0,1,7|608,4,0,0,0,0,1,2|609,2,0,0,0,0,1,10|610,3,0,0,0,0,1,8|611,2,0,0,0,0,1,5|612,5,0,0,0,0,1,9|613,3,0,0,0,0,1,13|614,2,0,0,0,0,1,11|615,5,0,0,0,0,1,10|616,3,0,0,0,0,1,15|617,3,0,0,0,0,1,9|618,1,0,0,0,0,1,12|619,5,0,0,0,0,1,6|620,5,0,0,0,0,1,9|621,3,0,0,0,0,1,8|622,1,0,0,0,0,1,7|623,2,0,0,0,0,1,12|624,1,0,0,0,0,1,18|625,4,0,0,0,0,1,7|626,1,0,0,0,0,1,17|627,2,0,0,0,0,1,4|628,3,0,0,0,0,1,13|629,2,0,0,0,0,1,6|630,3,0,0,0,0,1,17|631,1,0,0,0,0,1,5|632,5,0,0,0,0,1,6|633,3,0,0,0,0,1,15|634,1,0,0,0,0,1,13|635,1,0,0,0,0,1,4|636,1,0,0,0,0,1,13|637,2,0,0,0,0,1,1|638,4,0,0,0,0,1,12|639,4,0,0,0,0,1,10|640,4,0,0,0,0,1,4|641,1,0,0,0,0,1,12|642,3,0,0,0,0,1,3|643,1,0,0,0,0,1,4|644,4,0,0,0,0,1,2|645,1,0,0,0,0,1,17|646,4,0,0,0,0,1,11|647,2,0,0,0,0,1,3|648,2,0,0,0,0,1,7|649,4,0,0,0,0,1,8|650,2,0,0,0,0,1,4|651,1,0,0,0,0,1,15|652,2,0,0,0,0,1,14|653,1,0,0,0,0,1,8|654,3,0,0,0,0,1,4|655,3,0,0,0,0,1,14|656,2,0,0,0,0,1,3|657,5,0,0,0,0,1,12|658,1,0,0,0,0,1,3|659,4,0,0,0,0,1,4|660,1,0,0,0,0,1,1|661,2,0,0,0,0,1,10|662,4,0,0,0,0,1,6|663,2,0,0,0,0,1,9|664,1,0,0,0,0,1,1|665,5,0,0,0,0,1,6|666,4,0,0,0,0,1,7|667,4,0,0,0,0,1,3|668,2,0,0,0,0,1,12|669,4,0,0,0,0,1,8|670,4,0,0,0,0,1,2|671,1,0,0,0,0,1,10|672,2,0,0,0,0,1,11|673,3,0,0,0,0,1,6|674,5,0,0,0,0,1,5|675,2,0,0,0,0,1,7|676,2,0,0,0,0,1,14|677,5,0,0,0,0,1,7|678,4,0,0,0,0,1,11|679,1,0,0,0,0,1,1|680,1,0,0,0,0,1,2|681,3,0,0,0,0,1,17|682,2,0,0,0,0,1,13|683,1,0,0,0,0,1,10|684,5,0,0,0,0,1,14|685,5,0,0,0,0,1,16|686,2,0,0,0,0,1,7|687,5,0,0,0,0,1,16|688,1,0,0,0,0,1,14|689,3,0,0,0,0,1,9|690,5,0,0,0,0,1,5|691,4,0,0,0,0,1,15|692,2,0,0,0,0,1,17|693,2,0,0,0,0,1,2|694,5,0,0,0,0,1,8|695,4,0,0,0,0,1,9|696,1,0,0,0,0,1,2|697,1,0,0,0,0,1,17|698,5,0,0,0,0,1,4|699,5,0,0,0,0,1,6|700,2,0,0,0,0,1,2|701,3,0,0,0,0,1,2|702,5,0,0,0,0,1,17|703,5,0,0,0,0,1,12|704,3,0,0,0,0,1,1|705,5,0,0,0,0,1,2|706,2,0,0,0,0,1,15|707,2,0,0,0,0,1,13|708,3,0,0,0,0,1,10|709,1,0,0,0,0,1,3|710,2,0,0,0,0,1,11|711,5,0,0,0,0,1,6|712,5,0,0,0,0,1,8|713,5,0,0,0,0,1,5|714,2,0,0,0,0,1,11|715,4,0,0,0,0,1,9|716,3,0,0,0,0,1,9|717,3,0,0,0,0,1,17|718,4,0,0,0,0,1,13|719,2,0,0,0,0,1,6|720,5,0,0,0,0,1,15|721,1,0,0,0,0,1,15|722,2,0,0,0,0,1,11|723,5,0,0,0,0,1,9|724,3,0,0,0,0,1,10|725,5,0,0,0,0,1,9|726,1,0,0,0,0,1,2|];
